TERM = { '.', 'in_10', 'in_1', 'in_6', 'in_9', 'in_0', 'in_12', 'in_3', 's(1)', 'in_11', 's(2)', 'in_2', 'in_8', 's(0)', 's(3)', 'local_0', 'local_1', 'in_4', 'in_7', 'in_5'};
null = '.';
s = 14;
n = 19;
ndeps = 6;
max_registers_sz = 5;
NR = 2;
registers = [|'local_0', 'in_11', |'local_1', 'in_12'|];
dependencies = [|'i32.load16_s_0', 'i32.store16_2', |'i32.store16_2', 'i32.store16_4', |'i32.store16_4', 'i32.load16_u_5', |'i32.store_6', 'i32.load16_u_8', |'i32.load16_u_5', 'i32.store_6', |'i32.load16_u_8', 'i32.store8_9'|];
GET_ENUM = { GET1, GET2, GET3, GET4, GET5, GET6, GET7};
SET_ENUM = { SET1, SET2, SET3, SET4, SET5, SET6, SET7};
TEE_ENUM = { TEE1, TEE2, TEE3, TEE4, TEE5, TEE6, TEE7};
N = 8;
OP = { 'i32.load16_s_0', 'i32.store16_2', 'i32.store16_4', 'i32.load16_u_5', 'i32.store_6', 'i32.sub_0', 'i32.load16_u_8', 'i32.store8_9' };
in_ops = [1, 2, 2, 1, 2, 2, 1, 2 ];
out_ops = [1, 0, 0, 1, 0, 1, 1, 0 ];
in1 = ['in_0', 'local_1', 'in_2', 'in_4', 's(1)', 'in_6', 's(2)', 's(3)' ];
in2 = ['.', 's(0)', 'in_3', '.', 'in_5', 'in_7', '.', 'in_8' ];
in3 = ['.', '.', '.', '.', '.', '.', '.', '.' ];
out1 = ['s(0)', '.', '.', 's(1)', '.', 's(2)', 's(3)', '.' ];
out2 = ['.', '.', '.', '.', '.', '.', '.', '.' ];
out3 = ['.', '.', '.', '.', '.', '.', '.', '.' ];
comm = [false, false, false, false, false, false, false, false ];
gas = [1, 1, 1, 1, 1, 1, 1, 1 ];
sz = [1, 1, 1, 1, 1, 1, 1, 1 ];
stor = [false, true, true, false, true, false, false, true ];
lb = [ 1, 1, 1, 1, 1, 1, 1, 1 ];
ub = [ 14, 14, 14, 14, 14, 14, 14, 14 ];
startstack = [ 'in_0', 'in_1', 'in_2', 'in_3', 'in_4', 'in_5', 'in_6', 'in_7', 'in_8', 'in_9', 'in_10', 'in_11', 'in_12', null, null, null, null, null, null ];
endstack = [ 'in_12', null, null, null, null, null, null, null, null, null, null, null, null, null, null, null, null, null, null ];
